p edge 100 464
e 1 16
e 1 21
e 1 26
e 1 47
e 1 69
e 1 83
e 1 99
e 2 13
e 2 14
e 2 25
e 2 27
e 2 28
e 2 34
e 2 51
e 2 53
e 2 67
e 2 69
e 2 73
e 2 74
e 2 81
e 2 88
e 2 95
e 3 4
e 3 26
e 3 44
e 3 62
e 3 74
e 3 94
e 3 98
e 4 35
e 4 38
e 4 70
e 4 83
e 4 93
e 5 6
e 5 22
e 5 25
e 5 31
e 5 32
e 5 49
e 5 50
e 5 53
e 5 65
e 5 67
e 5 74
e 5 88
e 6 18
e 6 27
e 6 29
e 6 30
e 6 37
e 6 38
e 6 57
e 6 71
e 6 72
e 6 99
e 7 13
e 7 17
e 7 24
e 7 29
e 7 43
e 7 52
e 7 53
e 7 62
e 7 84
e 7 92
e 8 34
e 8 36
e 8 39
e 8 44
e 8 54
e 8 60
e 8 68
e 8 72
e 8 81
e 9 13
e 9 22
e 9 26
e 9 37
e 9 53
e 9 61
e 9 71
e 9 75
e 9 76
e 9 78
e 9 83
e 9 84
e 10 17
e 10 24
e 10 31
e 10 32
e 10 33
e 10 39
e 10 61
e 10 73
e 10 81
e 10 94
e 11 12
e 11 21
e 11 22
e 11 29
e 11 42
e 11 43
e 11 57
e 11 74
e 11 94
e 12 26
e 12 27
e 12 44
e 12 45
e 12 55
e 12 57
e 12 61
e 12 94
e 13 25
e 13 52
e 13 55
e 13 79
e 13 83
e 13 88
e 13 89
e 13 90
e 13 92
e 13 97
e 13 98
e 13 100
e 14 36
e 14 39
e 14 72
e 14 83
e 14 84
e 14 89
e 15 21
e 15 32
e 15 33
e 15 44
e 15 49
e 15 55
e 15 63
e 15 68
e 15 90
e 15 92
e 15 99
e 16 38
e 16 41
e 16 50
e 16 57
e 16 86
e 17 29
e 17 36
e 17 50
e 17 61
e 17 69
e 17 79
e 17 84
e 17 87
e 18 26
e 18 27
e 18 48
e 18 86
e 18 87
e 18 92
e 18 96
e 18 97
e 19 22
e 19 23
e 19 31
e 19 44
e 19 49
e 19 73
e 19 82
e 19 93
e 19 100
e 20 30
e 20 33
e 20 48
e 20 67
e 20 81
e 20 99
e 21 49
e 21 56
e 21 77
e 21 93
e 22 24
e 22 29
e 22 34
e 22 36
e 22 38
e 22 44
e 22 52
e 22 57
e 22 87
e 23 50
e 23 62
e 23 97
e 24 26
e 24 29
e 24 37
e 24 84
e 24 88
e 24 94
e 24 96
e 25 80
e 25 85
e 25 92
e 25 100
e 26 34
e 26 40
e 26 54
e 26 55
e 26 66
e 26 72
e 26 80
e 27 29
e 27 46
e 27 69
e 27 96
e 28 37
e 28 46
e 28 55
e 28 82
e 28 85
e 28 91
e 29 41
e 29 43
e 29 51
e 29 55
e 29 61
e 29 66
e 29 73
e 29 97
e 30 41
e 30 56
e 30 57
e 30 65
e 30 74
e 30 89
e 30 95
e 31 58
e 32 38
e 32 40
e 32 43
e 32 50
e 32 54
e 32 64
e 32 72
e 32 78
e 32 97
e 32 100
e 33 48
e 33 77
e 33 93
e 34 41
e 34 50
e 34 55
e 34 57
e 34 68
e 34 72
e 34 80
e 34 87
e 34 90
e 34 96
e 35 38
e 35 39
e 35 49
e 35 63
e 35 70
e 36 65
e 36 69
e 36 76
e 36 84
e 37 42
e 37 53
e 37 69
e 37 88
e 37 96
e 37 100
e 38 44
e 38 55
e 38 71
e 38 80
e 38 88
e 38 94
e 38 99
e 39 52
e 39 85
e 39 86
e 39 90
e 39 94
e 39 96
e 40 54
e 40 61
e 40 78
e 40 80
e 40 88
e 41 46
e 41 53
e 41 54
e 41 66
e 41 72
e 41 80
e 41 85
e 41 90
e 42 47
e 42 50
e 42 97
e 43 54
e 43 65
e 43 69
e 43 88
e 44 96
e 44 100
e 45 65
e 45 70
e 45 86
e 45 89
e 46 52
e 46 61
e 46 88
e 46 95
e 46 97
e 47 50
e 47 52
e 47 59
e 47 65
e 47 86
e 47 92
e 47 94
e 49 61
e 49 68
e 49 77
e 49 84
e 50 52
e 50 55
e 50 68
e 50 79
e 51 71
e 51 74
e 51 89
e 51 94
e 52 54
e 52 59
e 52 61
e 52 77
e 52 87
e 52 94
e 52 96
e 53 54
e 53 70
e 53 76
e 53 79
e 53 86
e 53 89
e 53 97
e 54 78
e 54 96
e 54 97
e 55 65
e 55 67
e 55 84
e 55 86
e 56 61
e 56 78
e 56 79
e 56 94
e 57 66
e 57 75
e 57 78
e 57 80
e 57 88
e 57 98
e 57 99
e 58 71
e 58 75
e 58 78
e 58 82
e 58 99
e 59 64
e 59 68
e 59 71
e 59 76
e 59 95
e 59 98
e 60 71
e 60 81
e 60 87
e 60 90
e 61 77
e 61 89
e 61 99
e 62 99
e 63 69
e 63 87
e 63 92
e 64 100
e 65 69
e 65 72
e 65 82
e 65 83
e 65 90
e 65 95
e 65 98
e 66 67
e 66 68
e 66 80
e 66 82
e 66 86
e 66 95
e 66 99
e 67 70
e 67 95
e 68 71
e 68 73
e 68 77
e 68 96
e 69 75
e 69 89
e 69 93
e 69 100
e 70 79
e 70 84
e 70 95
e 70 100
e 71 72
e 71 89
e 72 81
e 72 83
e 72 84
e 72 98
e 73 76
e 73 95
e 73 96
e 74 84
e 74 85
e 75 79
e 75 97
e 76 85
e 76 86
e 76 87
e 76 89
e 77 88
e 77 91
e 78 86
e 78 100
e 79 88
e 79 95
e 79 97
e 79 98
e 80 83
e 82 84
e 82 87
e 82 92
e 82 97
e 83 86
e 84 96
e 85 87
e 85 91
e 86 93
e 86 100
e 90 93
e 91 94
e 91 97
e 92 98
e 95 96
